data/CVRPLIB/Vrp-Set-XML100/instances/XML100_1214_03.vrp
NAME : XML100_1214_03
COMMENT : Generated by Queiroga, Sadykov, Uchoa, and Vidal (2021)
TYPE : CVRP
DIMENSION : 101
EDGE_WEIGHT_TYPE : EUC_2D
CAPACITY : 12
NODE_COORD_SECTION
1    11   67  
2    525  534 
3    602  182 
4    639  574 
5    724  14  
6    739  184 
7    500  634 
8    658  630 
9    673  145 
10   382  491 
11   652  242 
12   933  52  
13   672  138 
14   280  383 
15   876  15  
16   579  630 
17   661  187 
18   533  125 
19   447  240 
20   588  152 
21   801  37  
22   637  122 
23   567  478 
24   924  113 
25   943  35  
26   657  193 
27   624  219 
28   468  690 
29   764  87  
30   521  632 
31   223  321 
32   480  609 
33   285  380 
34   388  393 
35   539  373 
36   560  649 
37   716  465 
38   924  46  
39   429  339 
40   921  66  
41   608  257 
42   746  200 
43   577  88  
44   772  170 
45   907  63  
46   561  734 
47   338  182 
48   682  349 
49   958  98  
50   397  378 
51   865  15  
52   475  645 
53   755  744 
54   612  874 
55   560  543 
56   583  588 
57   840  192 
58   678  160 
59   593  579 
60   285  357 
61   504  81  
62   684  652 
63   399  404 
64   706  582 
65   501  603 
66   451  215 
67   592  163 
68   809  9   
69   515  808 
70   423  307 
71   349  190 
72   873  8   
73   503  617 
74   190  241 
75   633  155 
76   183  111 
77   667  930 
78   555  595 
79   605  560 
80   505  545 
81   516  623 
82   853  8   
83   649  165 
84   643  218 
85   670  231 
86   573  560 
87   463  332 
88   189  209 
89   343  389 
90   533  470 
91   534  751 
92   860  15  
93   409  279 
94   959  63  
95   362  371 
96   444  611 
97   848  156 
98   453  416 
99   466  392 
100  712  491 
101  344  431 
DEMAND_SECTION
1    0   
2    1   
3    1   
4    1   
5    1   
6    1   
7    1   
8    1   
9    1   
10   1   
11   1   
12   1   
13   1   
14   1   
15   1   
16   1   
17   1   
18   1   
19   1   
20   1   
21   1   
22   1   
23   1   
24   1   
25   1   
26   1   
27   1   
28   1   
29   1   
30   1   
31   1   
32   1   
33   1   
34   1   
35   1   
36   1   
37   1   
38   1   
39   1   
40   1   
41   1   
42   1   
43   1   
44   1   
45   1   
46   1   
47   1   
48   1   
49   1   
50   1   
51   1   
52   1   
53   1   
54   1   
55   1   
56   1   
57   1   
58   1   
59   1   
60   1   
61   1   
62   1   
63   1   
64   1   
65   1   
66   1   
67   1   
68   1   
69   1   
70   1   
71   1   
72   1   
73   1   
74   1   
75   1   
76   1   
77   1   
78   1   
79   1   
80   1   
81   1   
82   1   
83   1   
84   1   
85   1   
86   1   
87   1   
88   1   
89   1   
90   1   
91   1   
92   1   
93   1   
94   1   
95   1   
96   1   
97   1   
98   1   
99   1   
100  1   
101  1   
DEPOT_SECTION
1
-1
EOF
