data/CVRPLIB/Vrp-Set-XML100/solutions/XML100_1214_03.sol
Route #1: 17 19 66 2 74 82 57 8 12 21 42 60
Route #2: 41 56 96 23 48 93 24 11 37 39 44 28
Route #3: 75 87 73 30
Route #4: 100 9 31 64 72 6 80 29 35 15 77 79
Route #5: 25 16 5 43 20 91 50 14 71 81 67 4
Route #6: 46 70 92 69 86 38 49 94 88 32 13 59
Route #7: 65 18 26 83 84 10 40 34 98 97 62 33
Route #8: 89 22 54 85 55 58 78 3 63 99 36 47
Route #9: 1 7 61 52 76 53 68 90 45 27 51 95
Cost 14775
